data/mip_solutions/furman_sahinidis/reduced_transportation/8sp1_cplex.sol
Elapsed time: 0.0706989765167
Nodes explored: 94
Upper bound: 9.0
Lower bound: 9.0
y[0,0]=1
y[1,2]=1
y[2,0]=1
y[2,1]=1
y[2,3]=1
y[2,4]=1
y[3,1]=1
y[3,2]=1
y[4,1]=1
q[0,0,0,1]=448.0
q[0,1,0,1]=560.0
q[0,1,0,2]=672.0
q[0,1,0,3]=560.0
q[0,2,0,3]=1120.0
q[1,1,2,2]=1053.0
q[1,1,2,3]=347.0
q[1,2,2,3]=1050.0
q[1,3,2,3]=899.5
q[1,3,2,4]=325.5
q[2,2,0,2]=336.0
q[2,2,1,2]=796.25
q[2,2,1,3]=398.5
q[2,2,1,4]=179.25
q[2,3,1,3]=1125.0
q[2,3,3,3]=1725.0
q[2,4,1,4]=168.75
q[2,4,3,4]=258.75
q[2,5,1,5]=393.75
q[2,5,3,5]=603.75
q[2,6,3,6]=172.5
q[2,6,4,7]=112.5
q[3,3,1,3]=796.5
q[3,3,2,3]=1213.5
q[3,4,2,4]=201.0
q[4,0,1,1]=928.0
q[4,0,1,2]=595.75
q[4,0,1,5]=418.25
