data/mip_solutions/furman_sahinidis/reduced_transportation/8sp1_cplex.log

Log started (V12.6.3.0) Thu Jan 25 18:37:29 2018

New value for default parallel thread count: 1

Problem '/tmp/tmpXArBvw.pyomo.lp' read.
Read time = 0.00 sec. (0.07 ticks)

Problem name         : /tmp/tmpXArBvw.pyomo.lp
Objective sense      : Minimize
Variables            :     927  [Nneg: 901,  Binary: 25,  General Integer: 1]
Objective nonzeros   :       1
Linear constraints   :     107  [Less: 25,  Equal: 82]
  Nonzeros           :    2748
  RHS nonzeros       :      31

Variables            : Min LB: 0.000000         Max UB: 1.000000       
Objective nonzeros   : Min   : 1.000000         Max   : 1.000000       
Linear constraints   :
  Nonzeros           : Min   : 1.000000         Max   : 4987.500       
  RHS nonzeros       : Min   : 1.000000         Max   : 3510.000       
Tried aggregator 2 times.
MIP Presolve eliminated 59 rows and 777 columns.
MIP Presolve added 1 rows and 1 columns.
Aggregator did 2 substitutions.
Reduced MIP has 47 rows, 149 columns, and 428 nonzeros.
Reduced MIP has 18 binaries, 1 generals, 0 SOSs, and 0 indicators.
Presolve time = 0.00 sec. (0.77 ticks)
Found incumbent of value 21.000000 after 0.00 sec. (1.18 ticks)
Probing time = 0.00 sec. (0.02 ticks)
Cover probing fixed 0 vars, tightened 1 bounds.
Tried aggregator 1 time.
Reduced MIP has 47 rows, 149 columns, and 428 nonzeros.
Reduced MIP has 18 binaries, 1 generals, 0 SOSs, and 0 indicators.
Presolve time = 0.00 sec. (0.17 ticks)
Probing time = 0.00 sec. (0.02 ticks)
MIP emphasis: balance optimality and feasibility.
MIP search method: dynamic search.
Parallel mode: none, using 1 thread.
Root relaxation solution time = 0.00 sec. (0.48 ticks)

        Nodes                                         Cuts/
   Node  Left     Objective  IInf  Best Integer    Best Bound    ItCnt     Gap

*     0+    0                           21.0000        4.0000            80.95%
      0     0        7.0000     6       21.0000        7.0000       84   66.67%
*     0+    0                           10.0000        7.0000            30.00%
      0     0        7.0000     9       10.0000      Cuts: 50      140   30.00%
      0     0        7.0000     9       10.0000      Cuts: 53      179   30.00%
      0     2        7.0000     9       10.0000        7.0000      179   30.00%
Elapsed time = 0.01 sec. (6.53 ticks, tree = 0.01 MB, solutions = 2)
*    10+    9                            9.0000        7.2167            19.81%

Cover cuts applied:  2
Implied bound cuts applied:  13
Flow cuts applied:  4
Mixed integer rounding cuts applied:  3
Lift and project cuts applied:  2
Gomory fractional cuts applied:  1

Root node processing (before b&c):
  Real time             =    0.01 sec. (6.55 ticks)
Sequential b&c:
  Real time             =    0.01 sec. (10.66 ticks)
                          ------------
Total (root+branch&cut) =    0.02 sec. (17.21 ticks)

Solution pool: 3 solutions saved.

MIP - Integer optimal solution:  Objective =  9.0000000000e+00
Solution time =    0.02 sec.  Iterations = 1511  Nodes = 94
Deterministic time = 17.22 ticks  (867.74 ticks/sec)


Incumbent solution written to file '/tmp/tmpWTlfhL.cplex.sol'.
